cliques=[{0,16,34,35,36,37,53,65,66,100,101,102,103,116,119,123,127,136,137,138,151,159,168,171,172,173,181,191,192,193,201},{1,14,15,33,38,69,74,75,89,96,97,98,105,112,124,135,148,149,150,154,158,166,198,199,200,207,209},{2,14,15,33,74,75,88,96,97,98,112,124,126,135,139,148,149,150,158,160,161,166,194,198,199,200,204,207},{3,14,33,57,74,75,78,80,96,97,98,106,112,124,135,142,148,149,150,158,166,169,198,200,199,205,206,207},{4,14,15,21,22,33,74,75,76,96,97,98,99,112,124,128,135,140,148,149,150,158,166,183,198,200,199,207,208},{5,14,15,33,54,74,75,87,96,97,98,99,112,114,115,124,129,135,148,149,150,152,158,166,175,198,200,199,207},{6,14,15,33,54,74,75,79,87,96,97,98,99,112,118,124,135,148,149,150,152,155,158,166,198,200,199,207},{7,14,15,33,54,74,75,96,97,98,99,112,114,117,124,125,135,148,149,150,158,166,180,182,198,200,199,207},{8,14,15,33,74,75,96,97,98,99,112,122,124,135,148,149,150,158,166,190,197,198,200,199,207},{9,14,15,33,42,74,75,96,97,98,104,112,124,135,148,149,150,158,166,167,174,184,198,200,199,207},{10,14,15,33,72,71,74,75,96,97,98,112,124,135,148,149,150,158,166,198,199,200,207},{11,16,34,35,36,50,53,100,101,102,103,123,136,137,151,159,171,172,173,181,191,192,193,201},{12,16,36,53,100,101,102,123,137,151,171,172,173,181,191,192,193},{13,14,33,74,75,95,96,97,98,124,135,148,149,150,198,200,199,207},{14,15,19,20,33,54,74,75,96,97,98,99,112,114,117,124,125,135,143,148,149,150,158,166,182,198,199,200,207},{14,15,19,20,33,54,74,75,96,97,98,99,112,114,117,124,125,135,143,148,149,150,158,166,182,198,199,200,207},{16,34,35,36,44,53,77,100,101,102,103,113,123,136,137,138,147,151,153,159,171,172,173,181,191,192,193,201,202,203},{16,17,18,34,35,36,40,53,56,100,101,102,123,136,137,151,159,171,172,173,181,191,192,193,201},{16,17,18,34,35,36,40,53,56,100,101,102,123,136,137,151,159,171,172,173,181,191,192,193,201},{14,15,19,20,33,54,74,75,96,97,98,99,112,114,117,124,125,135,143,148,149,150,158,166,182,198,200,199,207},{14,15,20,19,33,54,74,75,96,97,98,99,112,114,117,124,125,135,143,148,149,150,158,166,182,198,200,199,207},{4,14,15,21,22,33,74,75,76,96,97,98,99,112,124,128,135,140,148,149,150,158,166,183,198,200,199,207,208},{4,14,15,22,21,33,74,75,76,96,97,98,99,112,124,128,135,140,148,149,150,158,166,183,198,200,199,207,208},{14,15,23,24,33,39,74,75,96,97,98,112,124,131,135,145,148,149,150,158,163,166,170,186,187,198,200,199,207},{14,15,24,23,33,39,74,75,96,97,98,112,124,131,135,145,148,149,150,158,163,166,170,186,187,198,200,199,207},{14,15,25,33,54,74,75,87,96,97,98,99,112,114,124,135,148,149,150,152,158,166,175,182,188,198,200,199,207},{0,16,26,34,35,36,37,53,65,100,101,102,103,116,123,136,137,138,151,159,168,171,172,173,181,191,192,193,201},{14,15,27,33,42,74,75,96,97,98,104,110,112,124,135,148,149,150,158,166,167,174,184,198,200,199,207},{16,28,34,35,36,53,77,100,101,102,103,113,123,136,137,138,151,153,159,171,172,173,181,191,192,193,201,202,203},{14,15,29,30,33,74,75,96,97,98,112,124,135,139,148,149,150,158,160,166,194,198,200,199,204,207},{14,15,30,29,33,74,75,96,97,98,112,124,135,139,148,149,150,158,160,166,194,198,200,199,204,207},{16,31,34,35,36,53,91,100,101,102,103,113,123,136,137,138,151,159,171,172,173,181,191,192,193,201},{14,32,33,60,74,75,85,96,97,98,124,133,135,148,149,150,157,165,198,200,199,207},{14,15,19,20,33,54,74,75,96,97,98,99,112,114,117,124,125,135,143,148,149,150,158,166,182,198,199,200,207},{16,34,35,36,44,53,77,100,101,102,103,113,123,136,137,138,147,151,153,159,171,172,173,181,191,192,193,201,202,203},{16,34,35,36,44,53,77,100,101,102,103,113,123,136,137,138,147,151,153,159,171,172,173,181,191,192,193,201,202,203},{16,34,35,36,44,53,77,100,101,102,103,113,123,136,137,138,147,151,153,159,171,172,173,181,191,192,193,201,202,203},{0,16,34,35,36,37,53,65,66,100,101,102,103,116,119,123,127,136,137,138,151,159,168,171,172,173,181,191,192,193,201},{1,14,15,33,38,69,74,75,89,96,97,98,105,112,124,135,148,149,150,154,158,166,198,199,200,207,209},{14,15,23,24,33,39,74,75,96,97,98,112,124,131,135,145,148,149,150,158,163,166,170,186,187,198,200,199,207},{16,17,18,34,35,36,40,53,56,100,101,102,123,136,137,151,159,171,172,173,181,191,192,193,201},{14,15,33,41,54,58,74,75,87,96,97,98,99,112,114,124,135,148,149,150,152,158,166,175,198,200,199,207},{14,15,27,33,42,74,75,96,97,98,104,110,112,124,135,148,149,150,158,166,167,174,184,198,199,200,207},{14,15,33,43,54,68,74,75,96,97,98,99,112,114,124,125,135,148,149,150,158,166,182,196,198,200,199,207},{16,34,35,36,44,53,77,100,101,102,103,113,123,136,137,138,147,151,153,159,171,172,173,181,191,192,193,201,202,203},{2,14,15,33,45,74,75,96,97,98,112,124,135,139,148,149,150,158,160,161,166,178,194,198,200,199,204,207},{14,15,33,46,74,75,76,92,96,97,98,99,112,124,135,140,148,149,150,158,166,183,198,200,199,207,208},{16,34,35,36,47,53,67,100,101,102,103,113,123,136,137,138,151,159,162,171,172,173,181,191,192,193,201,202},{16,34,35,36,48,53,63,100,101,102,103,113,123,136,137,138,151,159,171,172,173,181,191,192,193,201,202},{14,15,33,49,74,75,96,97,98,112,124,135,148,149,150,158,166,198,200,199,207},{16,34,35,36,50,52,53,64,100,101,102,103,123,136,137,151,159,171,172,173,181,191,192,193,201},{16,34,35,36,51,53,94,100,101,102,103,113,123,136,137,151,159,171,172,173,181,191,192,193,201,202},{16,34,35,36,50,52,53,64,100,101,102,103,123,136,137,151,159,171,172,173,181,191,192,193,201},{16,34,35,36,44,53,77,100,101,102,103,113,123,136,137,138,147,151,153,159,171,172,173,181,191,192,193,201,202,203},{14,15,19,20,33,54,74,75,96,97,98,99,112,114,117,124,125,135,143,148,149,150,158,166,182,198,199,200,207},{14,15,33,55,59,74,75,96,97,98,104,112,124,135,141,148,149,150,158,166,167,174,179,185,195,198,199,200,207},{16,17,18,34,35,36,40,53,56,100,101,102,123,136,137,151,159,171,172,173,181,191,192,193,201},{3,14,33,57,74,75,78,80,96,97,98,106,112,124,135,142,148,149,150,158,166,169,198,200,199,205,206,207},{14,15,33,41,54,58,74,75,87,96,97,98,99,112,114,124,135,148,149,150,152,158,166,175,198,200,199,207},{14,15,33,55,59,74,75,96,97,98,104,112,124,135,141,148,149,150,158,166,167,174,179,185,195,198,200,199,207},{14,32,33,60,74,75,85,96,97,98,124,133,135,148,149,150,157,165,198,200,199,207},{16,34,35,36,53,61,67,100,101,102,103,113,123,136,137,138,151,153,159,162,171,172,173,181,191,192,193,201,202,203},{16,34,35,36,53,62,77,100,101,102,103,113,123,136,137,138,151,153,159,162,171,172,173,181,191,192,193,201,202,203},{16,34,35,36,48,53,63,100,101,102,103,113,123,136,137,138,151,159,171,172,173,181,191,192,193,201,202},{16,34,35,36,50,52,53,64,100,101,102,103,123,136,137,151,159,171,172,173,181,191,192,193,201},{0,16,34,35,36,37,53,65,66,100,101,102,103,116,119,123,127,136,137,138,151,159,168,171,172,173,181,191,192,193,201},{0,16,34,35,36,37,53,65,66,100,101,102,103,116,119,123,127,136,137,138,151,159,168,171,172,173,181,191,192,193,201},{16,34,35,36,53,61,67,100,101,102,103,113,123,136,137,138,151,153,159,162,171,172,173,181,191,192,193,201,202,203},{14,15,33,43,54,68,74,75,96,97,98,99,112,114,124,125,135,148,149,150,158,166,182,196,198,200,199,207},{1,14,15,33,38,69,74,75,89,96,97,98,105,112,124,135,148,149,150,154,158,166,198,200,199,207,209},{16,34,35,36,53,70,93,100,101,102,103,113,123,136,137,138,151,159,171,172,173,181,191,192,193,201,202},{10,14,15,33,71,72,74,75,96,97,98,112,124,135,148,149,150,158,166,198,200,199,207},{10,14,15,33,72,71,74,75,96,97,98,112,124,135,148,149,150,158,166,198,200,199,207},{10,14,15,33,73,74,75,84,96,97,98,112,124,135,148,149,150,158,166,198,200,199,207},{14,15,19,20,33,54,74,75,96,97,98,99,112,114,117,124,125,135,143,149,150,148,158,166,182,198,199,200,207},{14,15,19,20,33,54,74,75,96,97,98,99,112,114,117,124,125,135,143,148,149,150,158,166,182,198,199,200,207},{4,14,15,21,22,33,74,75,76,96,97,98,99,112,124,128,135,140,148,149,150,158,166,183,198,199,200,207,208},{16,34,35,36,44,53,77,100,101,102,103,113,123,136,137,138,147,151,153,159,171,172,173,181,191,192,193,201,202,203},{3,14,33,57,74,75,78,80,96,97,98,106,112,124,135,142,148,149,150,158,166,169,198,200,199,205,206,207},{6,14,15,33,54,74,75,79,87,96,97,98,99,112,118,124,135,148,149,150,152,155,158,166,198,200,199,207},{3,14,33,57,74,75,78,80,96,97,98,106,112,124,135,142,148,149,150,158,166,169,198,200,199,205,206,207},{14,15,33,74,75,76,81,96,97,98,99,112,124,132,135,140,148,149,150,158,166,183,198,200,199,207,208},{14,15,33,74,75,76,82,83,96,97,98,99,112,124,135,148,149,150,158,166,183,198,200,199,207},{14,15,33,74,75,76,83,82,96,97,98,99,112,124,135,148,149,150,158,166,183,198,200,199,207},{10,14,15,33,73,74,75,84,96,97,98,112,124,135,148,149,150,158,166,198,200,199,207},{14,32,33,60,74,75,85,96,97,98,124,133,135,148,149,150,157,165,198,200,199,207},{14,33,74,75,86,96,97,98,124,135,148,149,150,198,200,199,207},{5,14,15,33,54,74,75,87,96,97,98,99,112,114,115,124,129,135,148,149,150,152,158,166,175,198,199,200,207},{14,15,33,74,75,88,90,96,97,98,108,112,124,126,135,139,146,148,149,150,158,160,161,166,194,198,199,200,207},{1,14,15,33,38,69,74,75,89,96,97,98,105,112,124,135,148,149,150,154,158,166,198,199,200,207,209},{14,15,33,74,75,88,90,96,97,98,108,112,124,126,135,139,146,148,149,150,158,160,161,166,194,198,200,199,207},{0,16,34,35,36,53,91,100,101,102,103,116,123,136,137,138,151,159,171,172,173,181,191,192,193,201},{14,15,33,46,74,75,76,92,96,97,98,99,112,124,135,140,148,149,150,158,166,183,198,200,199,207,208},{16,34,35,36,53,70,93,100,101,102,103,113,123,136,137,138,151,159,171,172,173,181,191,192,193,201,202},{16,34,35,36,51,53,94,100,101,102,103,113,123,136,137,151,159,171,172,173,181,191,192,193,201,202},{14,15,33,74,75,95,96,97,98,112,124,135,148,149,150,158,166,198,199,200,207},{14,15,19,20,33,54,74,75,96,97,98,99,112,114,117,124,125,135,143,148,149,150,158,166,182,198,199,200,207},{14,15,19,20,33,54,74,75,96,97,98,99,112,114,117,124,125,135,143,148,149,150,158,166,182,198,199,200,207},{14,15,19,20,33,54,74,75,96,97,98,99,112,114,117,124,125,135,143,148,149,150,158,166,182,198,199,200,207},{14,15,19,20,33,54,74,75,96,97,98,99,112,114,117,124,125,135,143,148,149,150,158,166,182,198,199,200,207},{16,34,35,36,44,53,77,100,101,102,103,113,123,136,137,138,147,151,153,159,171,172,173,181,191,192,193,201,202,203},{16,34,35,36,44,53,77,100,101,102,103,113,123,136,137,138,147,151,153,159,171,172,173,181,191,192,193,201,202,203},{16,34,35,36,44,53,77,100,101,102,103,113,123,136,137,138,147,151,153,159,171,172,173,181,191,192,193,201,202,203},{16,34,35,36,44,53,77,100,101,102,103,113,123,136,137,138,147,151,153,159,171,172,173,181,191,192,193,201,202,203},{14,15,27,33,42,74,75,96,97,98,104,110,112,124,135,148,149,150,158,166,167,174,184,198,199,200,207},{1,14,15,33,38,69,74,75,89,96,97,98,105,112,124,135,148,149,150,154,158,166,198,199,200,207,209},{3,14,33,57,74,75,78,80,96,97,98,106,112,124,135,142,148,149,150,158,166,169,198,200,199,205,206,207},{14,15,33,54,74,75,87,96,97,98,99,107,112,114,115,120,124,135,148,149,150,152,158,166,198,200,199,207},{14,15,33,74,75,88,90,96,97,98,108,112,124,126,135,139,146,148,149,150,158,160,161,166,194,198,200,199,207},{14,15,33,55,74,75,96,97,98,104,109,112,121,124,135,141,148,149,150,158,166,167,174,184,198,200,199,207},{14,15,27,33,42,74,75,96,97,98,104,110,112,124,135,148,149,150,158,166,167,174,184,198,200,199,207},{14,33,74,75,96,97,98,111,124,135,148,149,150,198,200,199,207},{14,15,19,20,33,54,74,75,96,97,98,99,112,114,117,124,125,135,143,148,149,150,158,166,182,198,199,200,207},{16,34,35,36,44,53,77,100,101,102,103,113,123,136,137,138,147,151,153,159,171,172,173,181,191,192,193,201,202,203},{14,15,19,20,33,54,74,75,96,97,98,99,112,114,117,124,125,135,143,148,149,150,158,166,182,198,199,200,207},{5,14,15,33,54,74,75,87,96,97,98,99,112,114,115,124,129,135,148,149,150,152,158,166,175,198,199,200,207},{0,16,34,35,36,37,53,65,66,100,101,102,103,116,119,123,127,136,137,138,151,159,168,171,172,173,181,191,192,193,201},{14,15,19,20,33,54,74,75,96,97,98,99,112,114,117,124,125,135,143,148,149,150,158,166,182,198,199,200,207},{6,14,15,33,54,74,75,79,87,96,97,98,99,112,118,124,135,148,149,150,152,155,158,166,198,200,199,207},{0,16,34,35,36,37,53,65,66,100,101,102,103,116,119,123,127,136,137,138,151,159,168,171,172,173,181,191,192,193,201},{14,15,33,54,74,75,87,96,97,98,99,107,112,114,115,120,124,135,148,149,150,152,158,166,198,200,199,207},{14,15,33,55,74,75,96,97,98,104,109,112,121,124,135,141,148,149,150,158,166,167,174,184,198,200,199,207},{8,14,15,33,74,75,96,97,98,99,112,122,124,135,148,149,150,158,166,190,197,198,200,199,207},{15,19,20,54,99,112,114,117,123,125,143,158,166,171,181,182},{14,15,19,20,33,54,74,75,96,97,98,99,112,114,117,124,125,135,143,148,149,150,158,166,182,198,199,200,207},{14,15,19,20,33,54,74,75,96,97,98,99,112,114,117,124,125,135,143,148,149,150,158,166,182,198,199,200,207},{14,15,33,74,75,88,90,96,97,98,108,112,124,126,135,139,146,148,149,150,158,160,161,166,194,198,199,200,207},{0,16,34,35,36,37,53,65,66,100,101,102,103,116,119,123,127,136,137,138,151,159,168,171,172,173,181,191,192,193,201},{4,14,15,21,22,33,74,75,76,96,97,98,99,112,124,128,135,140,148,149,150,158,166,183,198,200,199,207,208},{5,14,15,33,54,74,75,87,96,97,98,99,112,114,115,124,129,135,148,149,150,152,158,166,175,198,200,199,207},{14,15,33,54,74,75,87,96,97,98,99,112,115,124,130,135,144,148,149,150,152,158,166,198,200,199,207},{14,15,23,24,33,39,74,75,96,97,98,112,124,131,135,145,148,149,150,158,163,166,170,186,187,198,200,199,207},{14,15,33,74,75,76,81,96,97,98,99,112,124,132,135,140,148,149,150,158,166,183,198,200,199,207,208},{14,32,33,60,74,75,85,96,97,98,124,133,135,148,149,150,157,165,198,200,199,207},{14,33,74,75,96,97,98,124,134,135,148,149,150,198,200,199,207},{14,15,19,20,33,54,74,75,96,97,98,99,112,114,117,124,125,135,143,148,149,150,158,166,182,198,199,200,207},{16,34,35,36,44,53,77,100,101,102,103,113,123,136,137,138,147,151,153,159,171,172,173,181,191,192,193,201,202,203},{16,34,35,36,44,53,77,100,101,102,103,113,123,136,137,138,147,151,153,159,171,172,173,181,191,192,193,201,202,203},{16,34,35,36,44,53,77,100,101,102,103,113,123,136,137,138,147,151,153,159,171,172,173,181,191,192,193,201,202,203},{14,15,33,74,75,88,90,96,97,98,108,112,124,126,135,139,146,148,149,150,158,160,161,166,194,198,199,200,207},{4,14,15,21,22,33,74,75,76,96,97,98,99,112,124,128,135,140,148,149,150,158,166,183,198,199,200,207,208},{14,15,33,55,59,74,75,96,97,98,104,112,124,135,141,148,149,150,158,166,167,174,179,185,195,198,199,200,207},{3,14,33,57,74,75,78,80,96,97,98,106,112,124,135,142,148,149,150,158,166,169,198,200,199,205,206,207},{14,15,19,20,33,54,74,75,96,97,98,99,112,114,117,124,125,135,143,148,149,150,158,166,182,198,200,199,207},{14,15,33,54,74,75,87,96,97,98,99,112,114,115,124,135,144,148,149,150,152,158,166,198,200,199,207},{14,15,23,24,33,39,74,75,96,97,98,112,124,131,135,145,148,149,150,158,163,166,170,186,187,198,200,199,207},{14,15,33,74,75,88,90,96,97,98,108,112,124,126,135,139,146,148,149,150,158,160,161,166,194,198,200,199,207},{16,34,35,36,44,53,77,100,101,102,103,113,123,136,137,138,147,151,153,159,171,172,173,181,191,192,193,201,202,203},{14,15,19,20,33,54,74,75,96,97,98,99,112,114,117,124,125,135,143,148,149,150,158,166,182,198,199,200,207},{14,15,19,20,33,54,74,75,96,97,98,99,112,114,117,124,125,135,143,149,150,148,158,166,182,198,199,200,207},{14,15,19,20,33,54,74,75,96,97,98,99,112,114,117,124,125,135,143,150,149,148,158,166,182,198,199,200,207},{16,34,35,36,44,53,77,100,101,102,103,113,123,136,137,138,147,151,153,159,171,172,173,181,191,192,193,201,202,203},{5,14,15,33,54,74,75,87,96,97,98,99,112,114,115,124,129,135,148,149,150,152,158,166,175,198,199,200,207},{16,34,35,36,44,53,77,100,101,102,103,113,123,136,137,138,147,151,153,159,171,172,173,181,191,192,193,201,202,203},{1,14,15,33,38,69,74,75,89,96,97,98,105,112,124,135,148,149,150,154,158,166,198,199,200,207,209},{6,14,15,33,54,74,75,79,87,96,97,98,99,112,118,124,135,148,149,150,152,155,158,166,198,200,199,207},{3,14,33,57,74,75,78,96,97,98,106,112,124,135,142,148,149,150,156,158,166,169,189,198,200,199,205,206,207},{14,32,33,60,74,75,85,96,97,98,124,133,135,148,149,150,157,165,198,200,199,207},{14,15,19,20,33,54,74,75,96,97,98,99,112,114,117,124,125,135,143,148,149,150,158,166,182,198,199,200,207},{16,34,35,36,44,53,77,100,101,102,103,113,123,136,137,138,147,151,153,159,171,172,173,181,191,192,193,201,202,203},{14,15,33,74,75,88,90,96,97,98,108,112,124,126,135,139,146,148,149,150,158,160,161,166,194,198,199,200,207},{14,15,33,74,75,88,90,96,97,98,108,112,124,126,135,139,146,148,149,150,158,160,161,166,194,198,199,200,207},{16,34,35,36,53,61,67,100,101,102,103,113,123,136,137,138,151,153,159,162,171,172,173,181,191,192,193,201,202,203},{14,15,23,24,33,39,74,75,96,97,98,112,124,131,135,145,148,149,150,158,163,166,170,186,187,198,200,199,207},{1,14,15,33,38,74,75,89,96,97,98,105,112,124,135,148,149,150,154,158,164,166,176,177,198,200,199,207,209},{14,32,33,60,74,75,85,96,97,98,124,133,135,148,149,150,157,165,198,200,199,207},{14,15,19,20,33,54,74,75,96,97,98,99,112,114,117,124,125,135,143,148,149,150,158,166,182,198,199,200,207},{14,15,27,33,42,74,75,96,97,98,104,110,112,124,135,148,149,150,158,166,167,174,184,198,199,200,207},{0,16,34,35,36,37,53,65,66,100,101,102,103,116,119,123,127,136,137,138,151,159,168,171,172,173,181,191,192,193,201},{3,14,33,57,74,75,78,80,96,97,98,106,112,124,135,142,148,149,150,158,166,169,198,200,199,205,206,207},{14,15,23,24,33,39,74,75,96,97,98,112,124,131,135,145,148,149,150,158,163,166,170,186,187,198,200,199,207},{15,19,20,54,99,112,114,117,123,125,143,158,166,171,181,182},{16,34,35,36,44,53,77,100,101,102,103,113,123,136,137,138,147,151,153,159,171,172,173,181,191,192,193,201,202,203},{16,34,35,36,44,53,77,100,101,102,103,113,123,136,137,138,147,151,153,159,171,172,173,181,191,192,193,201,202,203},{14,15,27,33,42,74,75,96,97,98,104,110,112,124,135,148,149,150,158,166,167,174,184,198,199,200,207},{5,14,15,33,54,74,75,87,96,97,98,99,112,114,115,124,129,135,148,149,150,152,158,166,175,198,199,200,207},{1,14,15,33,38,74,75,89,96,97,98,105,112,124,135,148,149,150,154,158,164,166,176,177,198,200,199,207,209},{1,14,15,33,38,74,75,89,96,97,98,105,112,124,135,148,149,150,154,158,164,166,177,176,198,200,199,207,209},{2,14,15,33,45,74,75,96,97,98,112,124,135,139,148,149,150,158,160,161,166,178,194,198,200,199,204,207},{14,15,33,55,59,74,75,96,97,98,104,112,124,135,141,148,149,150,158,166,167,174,179,185,195,198,200,199,207},{7,14,15,33,54,74,75,96,97,98,99,112,114,117,124,125,135,148,149,150,158,166,180,182,198,200,199,207},{15,19,20,54,99,112,114,117,123,125,143,158,166,171,181,182},{14,15,19,20,33,54,74,75,96,97,98,99,112,114,117,124,125,135,143,148,149,150,158,166,182,198,199,200,207},{4,14,15,21,22,33,74,75,76,96,97,98,99,112,124,128,135,140,148,149,150,158,166,183,198,199,200,207,208},{14,15,27,33,42,74,75,96,97,98,104,110,112,124,135,148,149,150,158,166,167,174,184,198,199,200,207},{14,15,33,55,59,74,75,96,97,98,104,112,124,135,141,148,149,150,158,166,167,174,179,185,195,198,200,199,207},{14,15,23,24,33,39,74,75,96,97,98,112,124,131,135,145,148,149,150,158,163,166,170,186,187,198,200,199,207},{14,15,23,24,33,39,74,75,96,97,98,112,124,131,135,145,148,149,150,158,163,166,170,187,186,198,200,199,207},{14,15,25,33,54,74,75,87,96,97,98,99,112,114,124,135,148,149,150,152,158,166,175,182,188,198,200,199,207},{3,14,33,57,74,75,78,96,97,98,106,112,124,135,142,148,149,150,156,158,166,169,189,198,200,199,205,206,207},{8,14,15,33,74,75,96,97,98,99,112,122,124,135,148,149,150,158,166,190,197,198,200,199,207},{16,34,35,36,44,53,77,100,101,102,103,113,123,136,137,138,147,151,153,159,171,172,173,181,191,192,193,201,202,203},{16,34,35,36,44,53,77,100,101,102,103,113,123,136,137,138,147,151,153,159,171,172,173,181,191,192,193,201,202,203},{16,34,35,36,44,53,77,100,101,102,103,113,123,136,137,138,147,151,153,159,171,172,173,181,191,192,193,201,202,203},{14,15,33,74,75,88,90,96,97,98,108,112,124,126,135,139,146,148,149,150,158,160,161,166,194,198,199,200,207},{14,15,33,55,59,74,75,96,97,98,104,112,124,135,141,148,149,150,158,166,167,174,179,185,195,198,200,199,207},{14,15,33,43,54,68,74,75,96,97,98,99,112,114,124,125,135,148,149,150,158,166,182,196,198,200,199,207},{8,14,15,33,74,75,96,97,98,99,112,122,124,135,148,149,150,158,166,190,197,198,200,199,207},{14,15,19,20,33,54,74,75,96,97,98,99,112,114,117,124,125,135,143,148,149,150,158,166,182,198,199,200,207},{14,15,19,20,33,54,74,75,96,97,98,99,112,114,117,124,125,135,143,149,150,148,158,166,182,198,199,200,207},{14,15,19,20,33,54,74,75,96,97,98,99,112,114,117,124,125,135,143,149,150,148,158,166,182,198,200,199,207},{16,34,35,36,44,53,77,100,101,102,103,113,123,136,137,138,147,151,153,159,171,172,173,181,191,192,193,201,202,203},{16,34,35,36,44,53,77,100,101,102,103,113,123,136,137,138,147,151,153,159,171,172,173,181,191,192,193,201,202,203},{16,34,35,36,44,53,77,100,101,102,103,113,123,136,137,138,147,151,153,159,171,172,173,181,191,192,193,201,202,203},{2,14,15,33,74,75,88,96,97,98,112,124,126,135,139,148,149,150,158,160,161,166,194,198,199,200,204,207},{3,14,33,57,74,75,78,80,96,97,98,106,112,124,135,142,148,149,150,158,166,169,198,200,199,205,206,207},{3,14,33,57,74,75,78,80,96,97,98,106,112,124,135,142,148,149,150,158,166,169,198,200,199,206,205,207},{14,15,19,20,33,54,74,75,96,97,98,99,112,114,117,124,125,135,143,149,150,148,158,166,182,198,199,200,207},{4,14,15,21,22,33,74,75,76,96,97,98,99,112,124,128,135,140,148,149,150,158,166,183,198,199,200,207,208},{1,14,15,33,38,69,74,75,89,96,97,98,105,112,124,135,148,149,150,154,158,166,198,199,200,207,209}];
nr_cliques=210;
